NAME: cuum340.tsp
TYPE: TSP
COMMENT: User-generated TSP file
DIMENSION: 340
EDGE_WEIGHT_TYPE: EUC_2D
NODE_COORD_SECTION
1 66.0 222.0
2 211.0 132.0
3 249.0 160.0
4 253.0 147.0
5 266.0 201.0
6 290.0 13.0
7 77.0 61.0
8 106.0 275.0
9 82.0 202.0
10 84.0 105.0
11 130.0 207.0
12 240.0 272.0
13 249.0 212.0
14 103.0 69.0
15 128.0 291.0
16 328.0 313.0
17 139.0 220.0
18 277.0 15.0
19 92.0 191.0
20 132.0 163.0
21 97.0 60.0
22 150.0 312.0
23 263.0 205.0
24 209.0 61.0
25 66.0 230.0
26 66.0 103.0
27 107.0 183.0
28 202.0 265.0
29 246.0 187.0
30 169.0 83.0
31 337.0 8.0
32 95.0 62.0
33 117.0 278.0
34 91.0 69.0
35 113.0 186.0
36 234.0 216.0
37 319.0 108.0
38 13.0 159.0
39 225.0 283.0
40 330.0 104.0
41 207.0 145.0
42 208.0 83.0
43 276.0 251.0
44 240.0 70.0
45 137.0 258.0
46 28.0 241.0
47 298.0 268.0
48 203.0 49.0
49 1.0 54.0
50 125.0 261.0
51 29.0 60.0
52 277.0 126.0
53 142.0 217.0
54 338.0 338.0
55 184.0 14.0
56 170.0 43.0
57 338.0 201.0
58 239.0 278.0
59 240.0 328.0
60 297.0 170.0
61 215.0 184.0
62 136.0 70.0
63 154.0 326.0
64 196.0 308.0
65 41.0 184.0
66 167.0 73.0
67 275.0 135.0
68 214.0 33.0
69 22.0 82.0
70 118.0 121.0
71 154.0 155.0
72 122.0 63.0
73 149.0 319.0
74 233.0 76.0
75 286.0 162.0
76 49.0 109.0
77 169.0 307.0
78 112.0 45.0
79 275.0 313.0
80 163.0 160.0
81 108.0 191.0
82 47.0 79.0
83 131.0 94.0
84 136.0 293.0
85 212.0 87.0
86 230.0 113.0
87 271.0 230.0
88 333.0 134.0
89 135.0 281.0
90 322.0 114.0
91 89.0 226.0
92 196.0 176.0
93 234.0 190.0
94 86.0 275.0
95 127.0 315.0
96 42.0 103.0
97 191.0 91.0
98 241.0 231.0
99 132.0 189.0
100 23.0 257.0
101 29.0 170.0
102 122.0 303.0
103 272.0 245.0
104 323.0 333.0
105 288.0 74.0
106 38.0 19.0
107 181.0 158.0
108 79.0 77.0
109 327.0 180.0
110 285.0 259.0
111 147.0 1.0
112 281.0 4.0
113 130.0 202.0
114 335.0 271.0
115 166.0 280.0
116 90.0 167.0
117 19.0 82.0
118 272.0 60.0
119 209.0 215.0
120 131.0 202.0
121 258.0 47.0
122 141.0 242.0
123 272.0 159.0
124 131.0 317.0
125 288.0 170.0
126 259.0 23.0
127 14.0 103.0
128 221.0 28.0
129 34.0 176.0
130 27.0 13.0
131 148.0 283.0
132 330.0 110.0
133 212.0 234.0
134 150.0 21.0
135 62.0 120.0
136 214.0 23.0
137 37.0 328.0
138 306.0 268.0
139 51.0 128.0
140 20.0 203.0
141 58.0 38.0
142 251.0 69.0
143 299.0 189.0
144 42.0 147.0
145 212.0 109.0
146 284.0 90.0
147 192.0 294.0
148 122.0 331.0
149 223.0 214.0
150 85.0 168.0
151 190.0 79.0
152 20.0 40.0
153 293.0 217.0
154 251.0 273.0
155 316.0 270.0
156 58.0 241.0
157 12.0 279.0
158 99.0 49.0
159 151.0 92.0
160 200.0 329.0
161 65.0 328.0
162 254.0 212.0
163 11.0 88.0
164 8.0 336.0
165 177.0 281.0
166 43.0 340.0
167 137.0 15.0
168 6.0 19.0
169 209.0 53.0
170 335.0 253.0
171 124.0 305.0
172 192.0 185.0
173 39.0 225.0
174 69.0 114.0
175 317.0 137.0
176 313.0 182.0
177 76.0 18.0
178 85.0 142.0
179 100.0 152.0
180 191.0 180.0
181 66.0 333.0
182 116.0 20.0
183 89.0 29.0
184 120.0 146.0
185 34.0 43.0
186 40.0 241.0
187 67.0 139.0
188 330.0 304.0
189 272.0 143.0
190 66.0 289.0
191 9.0 252.0
192 330.0 15.0
193 64.0 323.0
194 162.0 176.0
195 286.0 115.0
196 98.0 180.0
197 132.0 95.0
198 308.0 209.0
199 119.0 39.0
200 89.0 30.0
201 229.0 187.0
202 331.0 141.0
203 210.0 1.0
204 41.0 245.0
205 32.0 317.0
206 207.0 141.0
207 11.0 169.0
208 274.0 234.0
209 312.0 310.0
210 9.0 143.0
211 187.0 21.0
212 38.0 153.0
213 81.0 193.0
214 254.0 153.0
215 254.0 329.0
216 14.0 59.0
217 143.0 81.0
218 16.0 293.0
219 182.0 140.0
220 232.0 133.0
221 213.0 191.0
222 200.0 180.0
223 57.0 170.0
224 299.0 211.0
225 217.0 22.0
226 20.0 315.0
227 268.0 317.0
228 50.0 248.0
229 217.0 206.0
230 49.0 248.0
231 274.0 60.0
232 80.0 225.0
233 1.0 95.0
234 16.0 185.0
235 261.0 29.0
236 121.0 315.0
237 325.0 76.0
238 54.0 203.0
239 37.0 296.0
240 70.0 311.0
241 316.0 294.0
242 109.0 272.0
243 167.0 277.0
244 29.0 124.0
245 134.0 145.0
246 313.0 183.0
247 128.0 338.0
248 178.0 181.0
249 240.0 60.0
250 312.0 123.0
251 183.0 214.0
252 7.0 281.0
253 319.0 262.0
254 129.0 139.0
255 144.0 86.0
256 150.0 263.0
257 52.0 106.0
258 52.0 301.0
259 48.0 133.0
260 51.0 264.0
261 84.0 176.0
262 237.0 167.0
263 176.0 269.0
264 315.0 243.0
265 189.0 253.0
266 253.0 255.0
267 208.0 161.0
268 224.0 150.0
269 284.0 227.0
270 231.0 338.0
271 157.0 260.0
272 187.0 157.0
273 292.0 316.0
274 288.0 259.0
275 222.0 101.0
276 65.0 172.0
277 309.0 278.0
278 37.0 314.0
279 29.0 177.0
280 335.0 139.0
281 298.0 319.0
282 173.0 22.0
283 260.0 253.0
284 6.0 236.0
285 247.0 255.0
286 196.0 96.0
287 90.0 4.0
288 279.0 140.0
289 48.0 118.0
290 275.0 296.0
291 88.0 95.0
292 106.0 123.0
293 30.0 105.0
294 298.0 165.0
295 224.0 214.0
296 51.0 128.0
297 164.0 105.0
298 241.0 213.0
299 194.0 37.0
300 302.0 136.0
301 225.0 235.0
302 84.0 213.0
303 116.0 67.0
304 236.0 139.0
305 103.0 61.0
306 105.0 308.0
307 88.0 7.0
308 253.0 196.0
309 97.0 2.0
310 167.0 199.0
311 133.0 129.0
312 140.0 10.0
313 275.0 292.0
314 198.0 162.0
315 267.0 318.0
316 31.0 165.0
317 76.0 234.0
318 316.0 142.0
319 202.0 196.0
320 311.0 98.0
321 26.0 197.0
322 300.0 67.0
323 172.0 183.0
324 272.0 53.0
325 138.0 335.0
326 75.0 100.0
327 98.0 336.0
328 207.0 6.0
329 192.0 5.0
330 81.0 103.0
331 149.0 175.0
332 269.0 79.0
333 77.0 205.0
334 130.0 45.0
335 244.0 202.0
336 230.0 83.0
337 334.0 79.0
338 213.0 225.0
339 167.0 137.0
340 188.0 51.0
EOF





